SCIP version 5.0.0 [precision: 8 byte] [memory: block] [mode: optimized] [LP solver: NONE] [GitHash: 3bbd232]
Copyright (C) 2002-2017 Konrad-Zuse-Zentrum fuer Informationstechnik Berlin (ZIB)

External codes: 
  Readline EditLine w  GNU library for command line editing (gnu.org/s/readline)
  CppAD 20160000.1     Algorithmic Differentiation of C++ algorithms developed by B. Bell (www.coin-or.org/CppAD)
  ZLIB 1.2.5           General purpose compression library by J. Gailly and M. Adler (zlib.net)
  GMP 6.1.2            GNU Multiple Precision Arithmetic Library developed by T. Granlund (gmplib.org)

user parameter file <scip.set> not found - using default parameters

read problem <../../Split_data/output/biodeg/4/4_sample_biodeg.logreg>
============

File name	:	../../Split_data/output/biodeg/4/4_sample_biodeg.logreg
Problem name 	:	4_sample_biodeg
Number of data	:	844
Number of var	:	41
The given data has linear dependence
1 sets of column vector are linearly dependent:
{ 19}, 

[dim=1] time: 0.029295
[dim=2] time: 0.058389
[dim=3] time: 0.093691
[dim=4] time: 0.125561
[dim=5] time: 0.155999
[dim=6] time: 0.187744
[dim=7] time: 0.216099
[dim=8] time: 0.241886
[dim=9] time: 0.269024
[dim=10] time: 0.299364
[dim=11] time: 0.332741
[dim=12] time: 0.357737
[dim=13] time: 0.38412
[dim=14] time: 0.409408
[dim=15] time: 0.441673
[dim=16] time: 0.458178
[dim=17] time: 0.473791
[dim=18] time: 0.496618
[dim=19] time: 0.517904
[dim=20] time: 0.534987
[dim=21] time: 0.553389
[dim=22] Time of forward = 0.568581sec.
AIC: 541.945
k: 21

[dim=40] time: 0.13999
[dim=39] time: 0.188721
[dim=38] time: 0.2373
[dim=37] time: 0.27956
[dim=36] time: 0.316632
[dim=35] time: 0.359249
[dim=34] time: 0.399598
[dim=33] time: 0.433354
[dim=32] time: 0.468337
[dim=31] time: 0.504985
[dim=30] time: 0.549183
[dim=29] time: 0.579971
[dim=28] time: 0.626161
[dim=27] time: 0.661373
[dim=26] time: 0.68876
[dim=25] time: 0.722721
[dim=24] time: 0.74666
[dim=23] time: 0.773909
[dim=22] time: 0.79583
[dim=21] time: 0.816372
[dim=20] time: 0.835176
[dim=19] Time of backward = 0.859876sec.
AIC: 539.96
k: 20
